# Solution for model MIP-moo-LAMOSCAD
# Objective value = 1.0404343760991133e+03
cover[o21,s5] 1
cover[o8,s12] 1
cover[o67,s8] 0
cover[o67,s11] 1
cover[o94,s19] 1
cover[o108,s12] 1
cover[o52,s11] 0
cover[o52,s12] 1
cover[o135,s8] 0
cover[o135,s11] 1
cover[o135,s12] 0
cover[o193,s5] 1
cover[o101,s12] 1
cover[o133,s8] 0
cover[o133,s11] 1
cover[o133,s12] 0
cover[o129,s12] 1
cover[o1,s8] 0
cover[o1,s11] 1
cover[o162,s5] 1
cover[o25,s1] 1
cover[o136,s8] 0
cover[o136,s11] 1
cover[o136,s12] 0
cover[o118,s12] 1
cover[o122,s12] 1
cover[o9,s12] 1
cover[o68,s8] 0
cover[o68,s11] 1
cover[o203,s19] 1
cover[o187,s1] 1
cover[o149,s5] 1
cover[o58,s8] 0
cover[o58,s11] 1
cover[o51,s12] 1
cover[o127,s12] 1
cover[o202,s19] 1
cover[o4,s19] 1
cover[o15,s19] 1
cover[o212,s5] 1
cover[o205,s5] 1
cover[o12,s12] 1
cover[o91,s19] 1
cover[o30,s1] 1
cover[o69,s11] 1
cover[o148,s5] 1
cover[o130,s8] 0
cover[o130,s11] 0
cover[o130,s12] 1
cover[o128,s12] 1
cover[o64,s8] 0
cover[o64,s11] 1
cover[o82,s19] 1
cover[o105,s12] 1
cover[o207,s5] 1
cover[o78,s19] 1
cover[o18,s5] 1
cover[o102,s12] 1
cover[o132,s8] 0
cover[o132,s11] 1
cover[o132,s12] 0
cover[o183,s1] 1
cover[o208,s5] 1
cover[o123,s12] 1
cover[o159,s5] 1
cover[o37,s1] 1
cover[o85,s19] 1
cover[o75,s19] 1
cover[o26,s1] 1
cover[o103,s12] 1
cover[o213,s5] 1
cover[o134,s8] 0
cover[o134,s11] 1
cover[o134,s12] 0
cover[o14,s8] 0
cover[o14,s11] 1
cover[o131,s8] 0
cover[o131,s11] 1
cover[o131,s12] 0
cover[o223,s1] 1
cover[o139,s8] 0
cover[o139,s11] 1
cover[o139,s12] 0
cover[o24,s1] 1
cover[o211,s5] 1
cover[o53,s8] 0
cover[o53,s11] 1
cover[o22,s1] 1
cover[o210,s5] 1
cover[o66,s8] 0
cover[o66,s11] 1
cover[o116,s12] 1
cover[o114,s12] 1
cover[o29,s1] 1
cover[o215,s5] 1
cover[o79,s19] 1
cover[o218,s5] 1
cover[o151,s5] 1
cover[o126,s12] 1
cover[o158,s5] 1
cover[o182,s1] 1
cover[o192,s1] 1
cover[o16,s19] 1
cover[o198,s1] 1
cover[o163,s5] 1
cover[o20,s5] 1
select[s19] 1
select[s11] 1
select[s12] 1
select[s8] 0
select[s5] 1
select[s1] 1
deploy[o21,s5,m] 0
deploy[o21,s5,c] 0
deploy[o21,s5,i] 0
deploy[o8,s12,m] 0
deploy[o8,s12,c] 31
deploy[o8,s12,i] 0
deploy[o67,s8,m] 0
deploy[o67,s8,c] 0
deploy[o67,s8,i] 0
deploy[o67,s11,m] 0
deploy[o67,s11,c] 110
deploy[o67,s11,i] 0
deploy[o94,s19,m] 0
deploy[o94,s19,c] 110
deploy[o94,s19,i] 0
deploy[o108,s12,m] 0
deploy[o108,s12,c] 5
deploy[o108,s12,i] 0
deploy[o52,s11,m] 2
deploy[o52,s11,c] 0
deploy[o52,s11,i] 0
deploy[o52,s12,m] 2
deploy[o52,s12,c] 0
deploy[o52,s12,i] 0
deploy[o135,s8,m] 0
deploy[o135,s8,c] 0
deploy[o135,s8,i] 0
deploy[o135,s11,m] 2
deploy[o135,s11,c] 0
deploy[o135,s11,i] 0
deploy[o135,s12,m] 2
deploy[o135,s12,c] 0
deploy[o135,s12,i] 0
deploy[o193,s5,m] 0
deploy[o193,s5,c] 0
deploy[o193,s5,i] 37
deploy[o101,s12,m] 20
deploy[o101,s12,c] 0
deploy[o101,s12,i] 0
deploy[o133,s8,m] 0
deploy[o133,s8,c] 0
deploy[o133,s8,i] 0
deploy[o133,s11,m] 0
deploy[o133,s11,c] 0
deploy[o133,s11,i] 157
deploy[o133,s12,m] 0
deploy[o133,s12,c] 0
deploy[o133,s12,i] 157
deploy[o129,s12,m] 100
deploy[o129,s12,c] 0
deploy[o129,s12,i] 0
deploy[o1,s8,m] 0
deploy[o1,s8,c] 0
deploy[o1,s8,i] 0
deploy[o1,s11,m] 20
deploy[o1,s11,c] 0
deploy[o1,s11,i] 0
deploy[o162,s5,m] 0
deploy[o162,s5,c] 0
deploy[o162,s5,i] 0
deploy[o25,s1,m] 100
deploy[o25,s1,c] 0
deploy[o25,s1,i] 0
deploy[o136,s8,m] 0
deploy[o136,s8,c] 0
deploy[o136,s8,i] 0
deploy[o136,s11,m] 0
deploy[o136,s11,c] 5
deploy[o136,s11,i] 0
deploy[o136,s12,m] 0
deploy[o136,s12,c] 5
deploy[o136,s12,i] 0
deploy[o118,s12,m] 0
deploy[o118,s12,c] 110
deploy[o118,s12,i] 0
deploy[o122,s12,m] 0
deploy[o122,s12,c] 31
deploy[o122,s12,i] 0
deploy[o9,s12,m] 0
deploy[o9,s12,c] 0
deploy[o9,s12,i] 7
deploy[o68,s8,m] 0
deploy[o68,s8,c] 0
deploy[o68,s8,i] 0
deploy[o68,s11,m] 100
deploy[o68,s11,c] 0
deploy[o68,s11,i] 0
deploy[o203,s19,m] 0
deploy[o203,s19,c] 110
deploy[o203,s19,i] 0
deploy[o187,s1,m] 100
deploy[o187,s1,c] 0
deploy[o187,s1,i] 0
deploy[o149,s5,m] 0
deploy[o149,s5,c] 110
deploy[o149,s5,i] 0
deploy[o58,s8,m] 0
deploy[o58,s8,c] 0
deploy[o58,s8,i] 0
deploy[o58,s11,m] 0
deploy[o58,s11,c] 0
deploy[o58,s11,i] 37
deploy[o51,s12,m] 0
deploy[o51,s12,c] 0
deploy[o51,s12,i] 157
deploy[o127,s12,m] 0
deploy[o127,s12,c] 0
deploy[o127,s12,i] 157
deploy[o202,s19,m] 20
deploy[o202,s19,c] 0
deploy[o202,s19,i] 0
deploy[o4,s19,m] 0
deploy[o4,s19,c] 0
deploy[o4,s19,i] 0
deploy[o15,s19,m] 0
deploy[o15,s19,c] 5
deploy[o15,s19,i] 0
deploy[o212,s5,m] 0
deploy[o212,s5,c] 0
deploy[o212,s5,i] 7
deploy[o205,s5,m] 0
deploy[o205,s5,c] 0
deploy[o205,s5,i] 0
deploy[o12,s12,m] 2
deploy[o12,s12,c] 0
deploy[o12,s12,i] 0
deploy[o91,s19,m] 20
deploy[o91,s19,c] 0
deploy[o91,s19,i] 0
deploy[o30,s1,m] 0
deploy[o30,s1,c] 0
deploy[o30,s1,i] 157
deploy[o69,s11,m] 20
deploy[o69,s11,c] 0
deploy[o69,s11,i] 0
deploy[o148,s5,m] 0
deploy[o148,s5,c] 0
deploy[o148,s5,i] 0
deploy[o130,s8,m] 0
deploy[o130,s8,c] 0
deploy[o130,s8,i] 0
deploy[o130,s11,m] 0
deploy[o130,s11,c] 31
deploy[o130,s11,i] 0
deploy[o130,s12,m] 0
deploy[o130,s12,c] 31
deploy[o130,s12,i] 0
deploy[o128,s12,m] 20
deploy[o128,s12,c] 0
deploy[o128,s12,i] 0
deploy[o64,s8,m] 0
deploy[o64,s8,c] 0
deploy[o64,s8,i] 0
deploy[o64,s11,m] 0
deploy[o64,s11,c] 5
deploy[o64,s11,i] 0
deploy[o82,s19,m] 20
deploy[o82,s19,c] 0
deploy[o82,s19,i] 0
deploy[o105,s12,m] 2
deploy[o105,s12,c] 0
deploy[o105,s12,i] 0
deploy[o207,s5,m] 0
deploy[o207,s5,c] 0
deploy[o207,s5,i] 0
deploy[o78,s19,m] 0
deploy[o78,s19,c] 0
deploy[o78,s19,i] 0
deploy[o18,s5,m] 0
deploy[o18,s5,c] 0
deploy[o18,s5,i] 37
deploy[o102,s12,m] 0
deploy[o102,s12,c] 0
deploy[o102,s12,i] 7
deploy[o132,s8,m] 0
deploy[o132,s8,c] 0
deploy[o132,s8,i] 0
deploy[o132,s11,m] 0
deploy[o132,s11,c] 0
deploy[o132,s11,i] 37
deploy[o132,s12,m] 0
deploy[o132,s12,c] 0
deploy[o132,s12,i] 37
deploy[o183,s1,m] 0
deploy[o183,s1,c] 0
deploy[o183,s1,i] 7
deploy[o208,s5,m] 0
deploy[o208,s5,c] 0
deploy[o208,s5,i] 0
deploy[o123,s12,m] 0
deploy[o123,s12,c] 5
deploy[o123,s12,i] 0
deploy[o159,s5,m] 0
deploy[o159,s5,c] 110
deploy[o159,s5,i] 0
deploy[o37,s1,m] 0
deploy[o37,s1,c] 5
deploy[o37,s1,i] 0
deploy[o85,s19,m] 100
deploy[o85,s19,c] 0
deploy[o85,s19,i] 0
deploy[o75,s19,m] 100
deploy[o75,s19,c] 0
deploy[o75,s19,i] 0
deploy[o26,s1,m] 0
deploy[o26,s1,c] 0
deploy[o26,s1,i] 37
deploy[o103,s12,m] 0
deploy[o103,s12,c] 5
deploy[o103,s12,i] 0
deploy[o213,s5,m] 0
deploy[o213,s5,c] 110
deploy[o213,s5,i] 0
deploy[o134,s8,m] 0
deploy[o134,s8,c] 0
deploy[o134,s8,i] 0
deploy[o134,s11,m] 20
deploy[o134,s11,c] 0
deploy[o134,s11,i] 0
deploy[o134,s12,m] 20
deploy[o134,s12,c] 0
deploy[o134,s12,i] 0
deploy[o14,s8,m] 0
deploy[o14,s8,c] 0
deploy[o14,s8,i] 0
deploy[o14,s11,m] 0
deploy[o14,s11,c] 5
deploy[o14,s11,i] 0
deploy[o131,s8,m] 0
deploy[o131,s8,c] 0
deploy[o131,s8,i] 0
deploy[o131,s11,m] 0
deploy[o131,s11,c] 31
deploy[o131,s11,i] 0
deploy[o131,s12,m] 0
deploy[o131,s12,c] 31
deploy[o131,s12,i] 0
deploy[o223,s1,m] 0
deploy[o223,s1,c] 5
deploy[o223,s1,i] 0
deploy[o139,s8,m] 0
deploy[o139,s8,c] 0
deploy[o139,s8,i] 0
deploy[o139,s11,m] 0
deploy[o139,s11,c] 0
deploy[o139,s11,i] 157
deploy[o139,s12,m] 0
deploy[o139,s12,c] 0
deploy[o139,s12,i] 157
deploy[o24,s1,m] 2
deploy[o24,s1,c] 0
deploy[o24,s1,i] 0
deploy[o211,s5,m] 0
deploy[o211,s5,c] 5
deploy[o211,s5,i] 0
deploy[o53,s8,m] 0
deploy[o53,s8,c] 0
deploy[o53,s8,i] 0
deploy[o53,s11,m] 20
deploy[o53,s11,c] 0
deploy[o53,s11,i] 0
deploy[o22,s1,m] 100
deploy[o22,s1,c] 0
deploy[o22,s1,i] 0
deploy[o210,s5,m] 0
deploy[o210,s5,c] 0
deploy[o210,s5,i] 37
deploy[o66,s8,m] 0
deploy[o66,s8,c] 0
deploy[o66,s8,i] 0
deploy[o66,s11,m] 0
deploy[o66,s11,c] 31
deploy[o66,s11,i] 0
deploy[o116,s12,m] 20
deploy[o116,s12,c] 0
deploy[o116,s12,i] 0
deploy[o114,s12,m] 0
deploy[o114,s12,c] 0
deploy[o114,s12,i] 7
deploy[o29,s1,m] 0
deploy[o29,s1,c] 0
deploy[o29,s1,i] 37
deploy[o215,s5,m] 0
deploy[o215,s5,c] 0
deploy[o215,s5,i] 0
deploy[o79,s19,m] 0
deploy[o79,s19,c] 110
deploy[o79,s19,i] 0
deploy[o218,s5,m] 0
deploy[o218,s5,c] 0
deploy[o218,s5,i] 37
deploy[o151,s5,m] 0
deploy[o151,s5,c] 0
deploy[o151,s5,i] 0
deploy[o126,s12,m] 100
deploy[o126,s12,c] 0
deploy[o126,s12,i] 0
deploy[o158,s5,m] 0
deploy[o158,s5,c] 31
deploy[o158,s5,i] 0
deploy[o182,s1,m] 20
deploy[o182,s1,c] 0
deploy[o182,s1,i] 0
deploy[o192,s1,m] 2
deploy[o192,s1,c] 0
deploy[o192,s1,i] 0
deploy[o16,s19,m] 0
deploy[o16,s19,c] 0
deploy[o16,s19,i] 0
deploy[o198,s1,m] 0
deploy[o198,s1,c] 5
deploy[o198,s1,i] 0
deploy[o163,s5,m] 0
deploy[o163,s5,c] 0
deploy[o163,s5,i] 157
deploy[o20,s5,m] 0
deploy[o20,s5,c] 31
deploy[o20,s5,i] 0
